Solver command line: ['C:\\Users\\sian_\\AMPL\\ipopt.exe', 'C:\\Users\\sian_\\AppData\\Local\\Temp\\tmpt7xjs_js.pyomo.nl', '-AMPL', 'halt_on_ampl_error=yes', 'tol=1e-07', 'bound_relax_factor=0.0']

Ipopt 3.12.13: halt_on_ampl_error=yes
tol=1e-07
bound_relax_factor=0.0


******************************************************************************
This program contains Ipopt, a library for large-scale nonlinear optimization.
 Ipopt is released as open source code under the Eclipse Public License (EPL).
         For more information visit http://projects.coin-or.org/Ipopt
******************************************************************************

This is Ipopt version 3.12.13, running with linear solver mumps.
NOTE: Other linear solvers might be more efficient (see Ipopt documentation).

Number of nonzeros in equality constraint Jacobian...:    51254
Number of nonzeros in inequality constraint Jacobian.:        0
Number of nonzeros in Lagrangian Hessian.............:    25560

Total number of variables............................:     6114
                     variables with only lower bounds:        0
                variables with lower and upper bounds:     1022
                     variables with only upper bounds:        0
Total number of equality constraints.................:     6112
Total number of inequality constraints...............:        0
        inequality constraints with only lower bounds:        0
   inequality constraints with lower and upper bounds:        0
        inequality constraints with only upper bounds:        0

iter    objective    inf_pr   inf_du lg(mu)  ||d||  lg(rg) alpha_du alpha_pr  ls
   0  1.0000000e-02 1.99e+00 5.25e-01  -1.0 0.00e+00    -  0.00e+00 0.00e+00   0
   1  1.9445845e-02 7.65e+03 5.24e-01  -1.0 5.88e+04    -  5.20e-03 7.81e-03f  8
   2  1.9462423e-02 7.65e+03 5.24e-01  -1.0 1.62e+05    -  1.47e-05 1.38e-05h  1
   3r 1.9462423e-02 7.65e+03 9.99e+02   3.9 0.00e+00    -  0.00e+00 7.46e-08R  2
   4r 2.2216406e-02 7.65e+03 5.87e+04   3.9 2.26e+06    -  2.15e-03 1.02e-06f  1
   5r 2.4377503e-02 2.45e+03 5.86e+04   2.5 1.86e+06    -  2.08e-03 4.08e-03f  1
   6r 2.4377503e-02 2.45e+03 9.99e+02   3.4 0.00e+00    -  0.00e+00 4.45e-07R  2
   7r 6.9453251e-02 2.27e+03 7.72e+03   3.4 1.11e+06    -  1.93e-03 1.69e-04f  1
   8r 7.9805583e-02 7.85e+02 7.81e+03   2.0 7.56e+05    -  1.55e-03 2.92e-03f  1
   9r 7.9805583e-02 7.85e+02 9.99e+02   2.9 0.00e+00    -  0.00e+00 3.08e-07R  6
iter    objective    inf_pr   inf_du lg(mu)  ||d||  lg(rg) alpha_du alpha_pr  ls
  10r 1.3369536e-01 5.69e+02 1.13e+03   2.9 4.35e+05    -  1.91e-03 5.89e-04f  1
  11r 1.3369536e-01 5.69e+02 9.99e+02   2.8 0.00e+00    -  0.00e+00 4.03e-07R  5
  12r 1.7678835e-01 4.01e+02 9.98e+02   2.8 3.64e+05    -  1.84e-03 6.61e-04f  1
  13  1.7680028e-01 4.01e+02 4.52e+03  -1.0 5.80e+03    -  2.89e-04 1.12e-05h  1
  14r 1.7680028e-01 4.01e+02 1.00e+03   2.6 0.00e+00    -  0.00e+00 5.59e-08R  2
  15r 1.9959223e-01 3.31e+02 1.05e+03   2.6 2.46e+05    -  1.45e-03 4.61e-04f  1
  16  1.9960889e-01 3.31e+02 1.38e+01  -1.0 4.31e+03    -  2.46e-04 1.66e-05h  1
  17r 1.9960889e-01 3.31e+02 9.99e+02   2.5 0.00e+00    -  0.00e+00 8.30e-08R  2
  18r 2.6799437e-01 3.16e+02 9.98e+02   2.5 2.14e+05    -  4.27e-04 9.64e-04f  1
  19  2.6800641e-01 3.16e+02 7.59e+01  -1.0 2.17e+03    -  7.33e-04 1.29e-05h  1
iter    objective    inf_pr   inf_du lg(mu)  ||d||  lg(rg) alpha_du alpha_pr  ls
  20r 2.6800641e-01 3.16e+02 9.99e+02   2.3 0.00e+00    -  0.00e+00 6.46e-08R  2
  21r 3.3781038e-01 2.94e+02 9.98e+02   2.3 1.05e+05    -  1.78e-03 1.39e-03f  1
  22  3.3832494e-01 2.94e+02 9.83e+01  -1.0 1.20e+03    -  1.50e-03 5.99e-04h  1
  23r 3.3832494e-01 2.94e+02 9.99e+02   2.2 0.00e+00    -  0.00e+00 3.75e-07R  5
  24r 3.6502893e-01 2.84e+02 9.98e+02   2.2 3.64e+04    -  7.82e-04 6.77e-04f  1
  25  3.6506094e-01 2.84e+02 6.01e+02  -1.0 1.02e+03    -  2.22e-03 4.33e-05h  1
  26r 3.6506094e-01 2.84e+02 9.99e+02   2.1 0.00e+00    -  0.00e+00 2.17e-07R  2
  27r 4.5616009e-01 2.52e+02 9.97e+02   2.1 3.25e+04    -  1.40e-03 2.38e-03f  1
  28  4.5635726e-01 2.52e+02 7.60e+02  -1.0 6.05e+02    -  3.75e-03 3.20e-04h  1
  29r 4.5635726e-01 2.52e+02 9.99e+02   1.9 0.00e+00    -  0.00e+00 3.99e-07R  4
iter    objective    inf_pr   inf_du lg(mu)  ||d||  lg(rg) alpha_du alpha_pr  ls
  30r 5.3068895e-01 2.32e+02 9.97e+02   1.9 2.40e+04    -  1.75e-03 2.32e-03f  1
  31  5.3222216e-01 2.31e+02 1.30e+03  -1.0 3.51e+02    -  5.41e-03 2.94e-03h  1
  32  5.3223858e-01 2.31e+02 9.47e+04  -1.0 3.65e+02    -  1.23e-02 3.15e-05h  1
  33r 5.3223858e-01 2.31e+02 1.00e+03   1.8 0.00e+00    -  0.00e+00 1.57e-07R  2
  34r 6.2129824e-01 2.13e+02 9.98e+02   1.8 1.47e+04    -  2.66e-03 3.03e-03f  1
  35  6.2158519e-01 2.13e+02 1.04e+01  -1.0 2.13e+02    -  4.81e-03 5.05e-04h  1
  36r 6.2158519e-01 2.13e+02 9.99e+02   1.7 0.00e+00    -  0.00e+00 3.14e-07R  5
  37r 7.0481396e-01 1.97e+02 9.96e+02   1.7 6.32e+03    -  5.17e-03 3.12e-03f  1
  38  7.0572698e-01 1.97e+02 8.54e+00  -1.0 1.98e+02    -  5.15e-04 1.89e-03h  1
  39  7.0573610e-01 1.97e+02 4.03e+02  -1.0 1.97e+02    -  2.29e-03 1.89e-05h  1
iter    objective    inf_pr   inf_du lg(mu)  ||d||  lg(rg) alpha_du alpha_pr  ls
  40r 7.0573610e-01 1.97e+02 9.99e+02   1.7 0.00e+00    -  0.00e+00 9.46e-08R  2
  41r 7.6875914e-01 1.86e+02 9.96e+02   1.7 4.99e+03    -  6.17e-03 2.46e-03f  1
  42  7.6909341e-01 1.86e+02 8.54e+01  -1.0 1.86e+02    -  1.20e-04 8.01e-04f  1
  43r 7.6909341e-01 1.86e+02 9.99e+02   1.6 0.00e+00    -  0.00e+00 2.50e-07R  6
  44r 7.8963826e-01 1.82e+02 9.98e+02   1.6 4.13e+03    -  6.03e-03 8.09e-04f  1
  45r 8.4093668e-01 1.74e+02 9.96e+02   0.9 8.74e+03    -  3.17e-04 2.87e-03f  1
  46  8.4146522e-01 1.74e+02 2.57e+01  -1.0 1.74e+02    -  5.66e-05 1.53e-03f  1
  47  8.4147051e-01 1.74e+02 2.14e+02  -1.0 1.74e+02    -  1.95e-03 1.53e-05h  1
  48r 8.4147051e-01 1.74e+02 9.99e+02   1.4 0.00e+00    -  0.00e+00 7.64e-08R  2
  49r 8.7913527e-01 1.70e+02 9.98e+02   1.4 5.13e+03    -  2.20e-03 1.41e-03f  1
iter    objective    inf_pr   inf_du lg(mu)  ||d||  lg(rg) alpha_du alpha_pr  ls
  50r 9.2941786e-01 1.65e+02 9.96e+02   0.7 5.88e+03    -  1.15e-03 2.39e-03f  1
  51r 9.5107710e-01 1.61e+02 9.94e+02   0.7 4.10e+03    -  4.35e-03 8.94e-04f  1
  52r 1.0125064e+00 1.52e+02 9.91e+02   0.7 3.61e+03    -  1.69e-02 2.85e-03f  1
  53  1.0170416e+00 1.48e+02 6.25e+01  -1.0 1.52e+02    -  4.05e-04 2.60e-02f  1
  54  1.0170836e+00 1.48e+02 3.12e+02  -1.0 1.48e+02    -  3.61e-02 2.48e-04h  1
  55r 1.0170836e+00 1.48e+02 9.99e+02   1.4 0.00e+00    -  0.00e+00 3.09e-07R  4
  56r 1.0483106e+00 1.45e+02 9.97e+02   1.4 1.75e+03    -  1.62e-02 1.44e-03f  1
  57r 1.0778247e+00 1.42e+02 9.95e+02   0.7 1.40e+03    -  1.72e-03 2.20e-03f  1
  58r 1.1475985e+00 1.30e+02 9.90e+02   0.7 2.48e+03    -  5.55e-03 4.86e-03f  1
  59  1.1507400e+00 1.20e+02 1.55e+03  -1.0 1.30e+02    -  5.19e-05 8.13e-02f  1
iter    objective    inf_pr   inf_du lg(mu)  ||d||  lg(rg) alpha_du alpha_pr  ls
  60  1.1507920e+00 1.19e+02 1.55e+03  -1.0 1.20e+02    -  6.13e-02 1.50e-03h  1
  61  1.1507925e+00 1.19e+02 7.00e+05  -1.0 1.19e+02    -  2.14e-01 1.52e-05h  1
  62r 1.1507925e+00 1.19e+02 9.99e+02   1.3 0.00e+00    -  0.00e+00 7.60e-08R  2
  63r 1.1903487e+00 1.17e+02 9.97e+02   1.3 1.16e+03    -  1.11e-02 2.27e-03f  1
  64r 1.2138326e+00 1.14e+02 9.94e+02   0.6 1.03e+03    -  1.06e-02 2.19e-03f  1
  65r 1.2568212e+00 1.06e+02 9.90e+02   0.6 1.76e+03    -  8.37e-03 4.61e-03f  1
  66  1.2568040e+00 1.06e+02 1.25e+00  -1.0 1.06e+02    -  4.65e-04 2.39e-04h  1
  67r 1.2568040e+00 1.06e+02 9.99e+02   1.2 0.00e+00    -  0.00e+00 2.99e-07R  4
  68r 1.2690004e+00 1.05e+02 1.35e+03   1.2 1.05e+03    -  7.32e-03 8.92e-04f  1
  69r 1.3394342e+00 1.00e+02 1.17e+03   1.2 8.93e+02    -  1.74e-03 6.07e-03f  1
iter    objective    inf_pr   inf_du lg(mu)  ||d||  lg(rg) alpha_du alpha_pr  ls
  70r 1.3416734e+00 9.98e+01 1.18e+03   1.2 7.86e+02    -  8.70e-03 2.25e-04f  1
  71r 1.4259168e+00 9.28e+01 1.15e+03   1.2 7.15e+02    -  3.88e-03 9.77e-03f  1
  72  1.3955673e+00 8.12e+01 1.71e+00  -1.0 9.28e+01    -  6.42e-02 1.25e-01f  1
  73  1.3950179e+00 8.10e+01 3.96e+02  -1.0 8.12e+01    -  2.90e-01 2.56e-03h  1
  74  1.3950122e+00 8.10e+01 2.45e+06  -1.0 8.10e+01    -  1.59e-01 2.60e-05h  1
  75r 1.3950122e+00 8.10e+01 9.99e+02   1.1 0.00e+00    -  0.00e+00 1.30e-07R  2
  76r 1.4425836e+00 7.73e+01 9.93e+02   1.1 5.91e+02    -  3.63e-02 6.24e-03f  1
  77r 1.4733704e+00 7.36e+01 9.85e+02   1.1 5.26e+02    -  3.36e-02 7.05e-03f  1
  78  1.4693781e+00 7.26e+01 7.17e+00  -1.0 7.36e+01    -  2.54e-03 1.36e-02f  1
  79  1.4693325e+00 7.26e+01 7.19e+03  -1.0 7.26e+01    -  9.77e-02 1.58e-04h  1
iter    objective    inf_pr   inf_du lg(mu)  ||d||  lg(rg) alpha_du alpha_pr  ls
  80r 1.4693325e+00 7.26e+01 9.99e+02   1.0 0.00e+00    -  0.00e+00 3.96e-07R  3
  81r 1.4787097e+00 7.17e+01 9.97e+02   1.0 5.21e+02    -  5.55e-02 1.70e-03f  1
  82r 1.5243435e+00 6.49e+01 1.01e+03   1.0 4.79e+02    -  6.23e-02 1.41e-02f  1
  83  1.2737989e+00 1.79e+01 1.00e+04  -1.0 6.49e+01    -  5.13e-03 7.24e-01f  1
  84  1.1740105e+00 2.62e-01 3.96e+02  -1.0 1.79e+01    -  5.97e-01 1.00e+00h  1
  85  1.1609147e+00 4.76e-04 2.61e-01  -1.0 3.50e-01    -  9.24e-01 1.00e+00h  1
  86  7.1541557e-01 5.55e-17 4.21e-01  -1.7 7.34e+00    -  4.30e-01 1.00e+00f  1
  87  6.5587696e-01 4.16e-17 9.71e-17  -1.7 1.18e+00    -  1.00e+00 1.00e+00f  1
  88  6.2135497e-01 2.78e-17 4.29e-03  -3.8 2.95e-01    -  9.77e-01 1.00e+00f  1
  89  6.2060774e-01 2.78e-17 4.16e-17  -3.8 1.42e-02    -  1.00e+00 1.00e+00f  1
iter    objective    inf_pr   inf_du lg(mu)  ||d||  lg(rg) alpha_du alpha_pr  ls
  90  6.2031089e-01 2.78e-17 3.03e-17  -5.7 2.97e-03    -  1.00e+00 1.00e+00f  1
  91  6.2030717e-01 2.78e-17 1.59e-17  -8.0 3.76e-05    -  1.00e+00 1.00e+00f  1

Number of Iterations....: 91

                                   (scaled)                 (unscaled)
Objective...............:   6.2030716818887555e-01    6.2030716818887555e-01
Dual infeasibility......:   1.5894520315667742e-17    1.5894520315667742e-17
Constraint violation....:   2.7755575615628914e-17    2.7755575615628914e-17
Complementarity.........:   9.0976456466931786e-09    9.0976456466931786e-09
Overall NLP error.......:   9.0976456466931786e-09    9.0976456466931786e-09


Number of objective function evaluations             = 157
Number of objective gradient evaluations             = 77
Number of equality constraint evaluations            = 165
Number of inequality constraint evaluations          = 0
Number of equality constraint Jacobian evaluations   = 112
Number of inequality constraint Jacobian evaluations = 0
Number of Lagrangian Hessian evaluations             = 91
Total CPU secs in IPOPT (w/o function evaluations)   =     29.725
Total CPU secs in NLP function evaluations           =      1.023

EXIT: Optimal Solution Found.

